# Objective value = 15
y 15
x1 3
r1 0
y1 4
p12 0
q12 0
p13 1
q13 1
p14 0
q14 0
p15 0
q15 0
p16 0
q16 0
p17 0
q17 0
p18 1
q18 1
p19 1
q19 1
p110 0
q110 0
p111 0
q111 0
p112 1
q112 0
p113 0
q113 0
p114 0
q114 0
p115 0
q115 0
p116 1
q116 0
p117 1
q117 0
p118 1
q118 1
p119 1
q119 0
p120 0
q120 0
x2 8
r2 0
y2 12
p23 1
q23 1
p24 1
q24 0
p25 1
q25 1
p26 0
q26 0
p27 1
q27 0
p28 1
q28 1
p29 1
q29 1
p210 1
q210 0
p211 1
q211 0
p212 1
q212 0
p213 1
q213 1
p214 1
q214 1
p215 1
q215 1
p216 1
q216 0
p217 1
q217 0
p218 1
q218 0
p219 1
q219 0
p220 0
q220 0
x3 10
r3 0
y3 2
p34 1
q34 0
p35 0
q35 1
p36 0
q36 1
p37 1
q37 0
p38 1
q38 1
p39 1
q39 1
p310 1
q310 0
p311 1
q311 0
p312 1
q312 0
p313 1
q313 1
p314 1
q314 0
p315 1
q315 0
p316 1
q316 0
p317 1
q317 0
p318 1
q318 0
p319 1
q319 0
p320 1
q320 0
x4 5
r4 0
y4 4
p45 0
q45 0
p46 0
q46 0
p47 0
q47 0
p48 1
q48 1
p49 1
q49 1
p410 1
q410 0
p411 0
q411 0
p412 1
q412 0
p413 0
q413 0
p414 0
q414 0
p415 0
q415 0
p416 1
q416 0
p417 1
q417 0
p418 1
q418 1
p419 1
q419 0
p420 0
q420 0
x5 8
r5 0
y5 10
p56 0
q56 0
p57 1
q57 0
p58 1
q58 1
p59 1
q59 1
p510 1
q510 0
p511 1
q511 0
p512 1
q512 0
p513 1
q513 1
p514 1
q514 1
p515 1
q515 1
p516 1
q516 0
p517 0
q517 1
p518 1
q518 0
p519 1
q519 0
p520 0
q520 0
x6 10
r6 0
y6 4
p67 1
q67 0
p68 1
q68 1
p69 1
q69 1
p610 1
q610 0
p611 1
q611 0
p612 1
q612 0
p613 1
q613 1
p614 1
q614 0
p615 1
q615 0
p616 1
q616 0
p617 1
q617 0
p618 1
q618 1
p619 1
q619 0
p620 1
q620 0
x7 6
r7 0
y7 2
p78 1
q78 0
p79 1
q79 1
p710 1
q710 0
p711 0
q711 0
p712 1
q712 0
p713 1
q713 1
p714 0
q714 0
p715 0
q715 0
p716 1
q716 0
p717 1
q717 0
p718 1
q718 0
p719 1
q719 0
p720 0
q720 0
x8 3
r8 1
y8 0
p89 0
q89 1
p810 0
q810 1
p811 0
q811 1
p812 1
q812 0
p813 0
q813 0
p814 0
q814 1
p815 0
q815 1
p816 1
q816 0
p817 0
q817 1
p818 0
q818 1
p819 1
q819 0
p820 0
q820 1
x9 3
r9 1
y9 1
p910 0
q910 1
p911 0
q911 1
p912 1
q912 0
p913 1
q913 1
p914 0
q914 1
p915 0
q915 1
p916 1
q916 0
p917 1
q917 0
p918 0
q918 1
p919 1
q919 0
p920 0
q920 1
x10 4
r10 0
y10 3
p1011 0
q1011 0
p1012 1
q1012 0
p1013 0
q1013 0
p1014 0
q1014 0
p1015 0
q1015 0
p1016 1
q1016 0
p1017 1
q1017 0
p1018 1
q1018 1
p1019 1
q1019 0
p1020 0
q1020 0
x11 7
r11 0
y11 2
p1112 1
q1112 0
p1113 1
q1113 1
p1114 0
q1114 0
p1115 0
q1115 0
p1116 1
q1116 0
p1117 1
q1117 0
p1118 1
q1118 0
p1119 1
q1119 0
p1120 0
q1120 0
x12 0
r12 0
y12 0
p1213 0
q1213 0
p1214 0
q1214 0
p1215 0
q1215 0
p1216 0
q1216 0
p1217 0
q1217 0
p1218 0
q1218 0
p1219 0
q1219 0
p1220 0
q1220 0
x13 6
r13 1
y13 0
p1314 0
q1314 1
p1315 0
q1315 1
p1316 1
q1316 0
p1317 0
q1317 1
p1318 1
q1318 0
p1319 1
q1319 0
p1320 0
q1320 1
x14 9
r14 0
y14 2
p1415 1
q1415 0
p1416 1
q1416 0
p1417 1
q1417 0
p1418 1
q1418 0
p1419 1
q1419 0
p1420 0
q1420 1
x15 8
r15 0
y15 2
p1516 1
q1516 0
p1517 1
q1517 0
p1518 1
q1518 0
p1519 1
q1519 0
p1520 0
q1520 0
x16 1
r16 0
y16 0
p1617 0
q1617 1
p1618 0
q1618 0
p1619 0
q1619 0
p1620 0
q1620 0
x17 1
r17 0
y17 13
p1718 0
q1718 0
p1719 1
q1719 1
p1720 0
q1720 0
x18 3
r18 1
y18 2
p1819 1
q1819 0
p1820 0
q1820 1
x19 2
r19 0
y19 0
p1920 0
q1920 0
x20 9
r20 0
y20 10
